(set-logic QF_S)
(declare-fun var_0xINPUT_73800 () String)
(assert (and (= (len var_0xINPUT_73800) 0) (= (len var_0xINPUT_73800) 0) (not (= var_0xINPUT_73800 "AUEAICDdfN"))))
(check-sat var_0xINPUT_73800)